
Gurobi 13.0.0 (linux64) logging started Thu Jan 15 00:07:03 2026

Set parameter LogFile to value "../experiments/network-n_30_s_0_rp_0-app_set-id_23_12_apps/submip_40_epr1_model_gurobi.log"
Set parameter TimeLimit to value 8.8836062201298773e+02
Gurobi Optimizer version 13.0.0 build v13.0.0rc1 (linux64 - "Ubuntu 24.04.3 LTS")

CPU model: Intel(R) Core(TM) Ultra 7 165H, instruction set [SSE2|AVX|AVX2]
Thread count: 22 physical cores, 22 logical processors, using up to 22 threads

Non-default parameters:
TimeLimit  8.8836062201298773e+02
LogToConsole  0

Academic license 2539022 - for non-commercial use only - registered to al___@studenti.unimi.it
Optimize a model with 4392 rows, 2340 columns and 11827 nonzeros (Min)
Model fingerprint: 0xfc554e13
Model has 2340 linear objective coefficients
Model has 98 quadratic constraints
Variable types: 0 continuous, 2340 integer (2340 binary)
Coefficient statistics:
  Matrix range     [1e+00, 9e+02]
  QMatrix range    [6e+01, 2e+02]
  Objective range  [1e+01, 2e+02]
  Bounds range     [1e+00, 1e+00]
  RHS range        [1e+00, 1e+09]
  QRHS range       [1e+02, 6e+02]
Presolve removed 4216 rows and 1962 columns
Presolve time: 0.01s
Presolved: 1702 rows, 1817 columns, 9522 nonzeros
Variable types: 2 continuous, 1815 integer (1815 binary)

Root relaxation: objective 3.156846e+03, 277 iterations, 0.00 seconds (0.01 work units)

    Nodes    |    Current Node    |     Objective Bounds      |     Work
 Expl Unexpl |  Obj  Depth IntInf | Incumbent    BestBd   Gap | It/Node Time

     0     0 3156.84621    0   70          - 3156.84621      -     -    0s
     0     0 3419.48930    0   91          - 3419.48930      -     -    0s
     0     0 3424.36426    0   77          - 3424.36426      -     -    0s
     0     0 3428.99216    0   92          - 3428.99216      -     -    0s
     0     0 3429.00662    0   94          - 3429.00662      -     -    0s
     0     0 infeasible    0               - infeasible      -     -    0s

Cutting planes:
  Gomory: 35
  Cover: 31
  Implied bound: 1
  Clique: 3
  MIR: 27
  Knapsack: 8
  StrongCG: 15
  GUB cover: 4
  Zero half: 11
  RLT: 52
  Relax-and-lift: 24
  BQP: 12

Explored 1 nodes (879 simplex iterations) in 0.21 seconds (0.15 work units)
Thread count was 22 (of 22 available processors)

Solution count 0

Model is infeasible
Best objective -, best bound -, gap -

User-callback calls 505, time in user-callback 0.00 sec
